1849937
44,229,203,171,167,92,212,51,220,58,57,138,10,142,196,45,124,226,213,217,180,135,205,22,68,66,72,73,70,71,74,77,80,67,61,62,59,63,21,146,29,82,42,0,2,125,69,85,190,9,30,31,35,38,162,161,25,34,54,39,33,36,26,27,93,214,160,165,88,90,86,222,219,224,46,47,18,133,110,115,116,117,112,41,121,113,118,83,194,192,28,199,197,198,200,164,132,13,109,188,191,195,43,193,119,49,48,136,144,143,111,106,107,101,100,129,139,126,134,158,156,154,155,210,183,228,182,95,204,168,209,150,184,207,206,151,225,208,159,50,97,137,96,7,6,8,4,14,15,12,19,16,175,178,177,176,163,64,153,173,75,56,94,78,166,84,187,123,172,130,147,181,60,122,24,79,131,148,114,1,81,157,76,221,40,127,140,23,104,215,99,52,91,17,55,53,174,201,98,189,65,218,105,120,179,102,186,11,145,87,227,108,185,170,149,89,169,141,3,20,216,152,128,32,223,37,202,5,103,211
